c This Formular is generated by mcnf
c
c    horn? no 
c    forced? no 
c    mixed sat? no 
c    clause length = 3 
c
p cnf 20  91 
 -11 2 -12 0
-3 -2 19 0
5 -8 1 0
11 19 -13 0
6 12 -9 0
12 -3 11 0
8 -14 2 0
-10 -19 -5 0
-9 15 6 0
17 15 8 0
-5 16 13 0
-18 -8 -19 0
3 4 10 0
19 10 1 0
7 18 14 0
8 -18 16 0
-20 7 19 0
3 19 7 0
-14 5 -10 0
-12 7 -10 0
4 7 10 0
6 -11 -9 0
-6 -14 17 0
18 10 -6 0
-4 -17 20 0
7 -15 16 0
-6 -10 -14 0
16 13 9 0
-6 20 16 0
17 -20 -9 0
-16 6 11 0
16 12 -19 0
-2 18 12 0
-1 10 2 0
6 -19 -14 0
-4 3 -2 0
11 1 10 0
-3 19 1 0
-14 4 -11 0
-14 -10 2 0
14 -2 -20 0
%
0

33 47 77 8 83 99 11 63 39 62 27 84 30 28 6 1 89 10 18 69
